186 5
10 10 10 10 10 

0 0 0 0 0 0 3 2 14 26 
0 0 0 0 0 0 3 3 6 12 
3 0 0 0 1 0 2 8 4 
9 0 0 0 3 0 3 11 10 5 
4 0 0 0 1 0 2 7 146 
10 0 0 0 6 0 1 7 
4 0 0 0 3 0 1 9 
10 0 0 0 4 0 1 10 
10 0 0 0 2 0 1 13 
2 0 0 0 1 0 1 13 
2 0 0 0 2 0 1 13 
10 0 0 0 2 0 1 13 
0 0 0 0 0 0 1 38 
0 0 0 0 0 0 2 15 16 
1 1 0 0 0 0 3 19 17 44 
6 1 0 0 0 0 3 20 19 18 
3 4 0 0 0 0 2 20 18 
7 4 0 0 0 0 3 24 23 22 
1 1 0 0 0 0 2 23 21 
9 5 0 0 0 0 1 21 
9 2 0 0 0 0 1 22 
8 2 0 0 0 0 1 25 
10 2 0 0 0 0 1 25 
10 3 0 0 0 0 1 25 
0 0 0 0 0 0 1 38 
0 0 0 0 0 0 3 27 28 29 
9 0 0 0 0 1 4 36 35 33 30 
7 0 0 0 0 3 2 36 31 
5 0 0 0 0 1 2 35 31 
8 0 0 0 0 1 1 31 
8 0 0 0 0 2 1 32 
2 0 0 0 0 4 1 34 
6 0 0 0 0 6 1 34 
7 0 0 0 0 1 2 37 128 
10 0 0 0 0 2 1 37 
5 0 0 0 0 4 1 37 
0 0 0 0 0 0 1 38 
0 0 0 0 0 0 3 39 51 63 
0 0 0 0 0 0 1 40 
10 0 1 0 0 0 3 44 43 41 
8 0 4 0 0 0 1 42 
2 0 1 0 0 0 3 47 46 45 
5 0 4 0 0 0 3 47 46 45 
3 0 5 0 0 0 2 47 45 
7 0 2 0 0 0 3 49 48 73 
1 0 1 0 0 0 2 49 48 
8 0 3 0 0 0 1 48 
1 0 2 0 0 0 1 50 
8 0 2 0 0 0 1 50 
0 0 0 0 0 0 1 75 
0 0 0 0 0 0 4 52 55 60 61 
7 0 0 0 1 0 2 59 53 
4 0 0 0 2 0 1 54 
5 0 0 0 4 0 1 56 
10 0 0 0 2 0 2 57 114 
10 0 0 0 2 0 1 58 
10 0 0 0 2 0 1 58 
7 0 0 0 2 0 1 62 
3 0 0 0 4 0 1 62 
2 0 0 0 4 0 1 62 
9 0 0 0 2 0 1 62 
0 0 0 0 0 0 1 75 
0 0 0 0 0 0 4 64 68 72 73 
4 1 0 0 0 0 2 71 65 
4 2 0 0 0 0 1 66 
3 2 0 0 0 0 2 70 67 
8 3 0 0 0 0 1 69 
9 2 0 0 0 0 2 69 165 
1 4 0 0 0 0 1 74 
2 4 0 0 0 0 1 74 
4 3 0 0 0 0 1 74 
3 3 0 0 0 0 1 74 
9 1 0 0 0 0 1 74 
0 0 0 0 0 0 1 75 
0 0 0 0 0 0 3 76 88 100 
0 0 0 0 0 0 3 77 79 86 
5 0 0 0 1 0 1 78 
8 0 0 0 3 0 3 85 82 80 
8 0 0 0 2 0 3 85 82 80 
5 0 0 0 4 0 2 84 81 
8 0 0 0 2 0 1 83 
7 0 0 0 2 0 1 83 
6 0 0 0 2 0 1 87 
5 0 0 0 3 0 1 87 
4 0 0 0 1 0 2 87 101 
10 0 0 0 5 0 1 87 
0 0 0 0 0 0 1 112 
0 0 0 0 0 0 3 89 92 93 
2 0 0 1 0 0 2 98 90 
9 0 0 3 0 0 2 94 91 
9 0 0 1 0 0 2 97 95 
10 0 0 1 0 0 2 96 94 
5 0 0 3 0 0 2 96 94 
3 0 0 3 0 0 1 97 
1 0 0 5 0 0 1 96 
4 0 0 3 0 0 1 99 
8 0 0 4 0 0 1 99 
6 0 0 1 0 0 1 99 
0 0 0 0 0 0 1 112 
0 0 0 0 0 0 1 101 
4 0 0 0 0 1 3 105 103 102 
6 0 0 0 0 5 3 110 109 106 
3 0 0 0 0 2 2 108 104 
10 0 0 0 0 1 1 106 
4 0 0 0 0 2 1 106 
3 0 0 0 0 3 1 107 
2 0 0 0 0 3 1 111 
1 0 0 0 0 3 1 111 
7 0 0 0 0 4 1 111 
9 0 0 0 0 1 1 111 
0 0 0 0 0 0 1 112 
0 0 0 0 0 0 3 113 125 137 
0 0 0 0 0 0 4 114 116 117 123 
9 0 0 0 1 0 2 120 115 
3 0 0 0 1 0 2 122 118 
8 0 0 0 4 0 1 118 
6 0 0 0 3 0 2 122 121 
3 0 0 0 3 0 1 119 
4 0 0 0 3 0 1 121 
5 0 0 0 3 0 1 122 
3 0 0 0 3 0 1 124 
2 0 0 0 1 0 1 124 
10 0 0 0 3 0 1 124 
0 0 0 0 0 0 1 149 
0 0 0 0 0 0 1 126 
4 1 0 0 0 0 3 131 130 127 
2 3 0 0 0 0 3 135 132 128 
7 2 0 0 0 0 2 134 129 
6 2 0 0 0 0 1 133 
7 2 0 0 0 0 1 132 
8 2 0 0 0 0 1 132 
10 3 0 0 0 0 1 136 
9 3 0 0 0 0 1 136 
7 3 0 0 0 0 1 136 
1 4 0 0 0 0 1 136 
0 0 0 0 0 0 1 149 
0 0 0 0 0 0 4 138 142 143 147 
9 0 1 0 0 0 2 146 139 
9 0 4 0 0 0 1 140 
8 0 2 0 0 0 2 145 141 
10 0 3 0 0 0 1 144 
10 0 3 0 0 0 1 145 
5 0 2 0 0 0 1 144 
2 0 2 0 0 0 1 148 
1 0 1 0 0 0 1 148 
1 0 1 0 0 0 1 148 
8 0 6 0 0 0 1 148 
0 0 0 0 0 0 1 149 
0 0 0 0 0 0 3 150 162 174 
0 0 0 0 0 0 2 151 152 
10 1 0 0 0 0 3 157 154 153 
3 5 0 0 0 0 3 158 157 156 
5 3 0 0 0 0 1 155 
1 2 0 0 0 0 1 155 
9 1 0 0 0 0 2 158 156 
3 4 0 0 0 0 2 160 159 
9 3 0 0 0 0 2 160 159 
4 1 0 0 0 0 1 159 
6 4 0 0 0 0 1 161 
5 1 0 0 0 0 1 161 
0 0 0 0 0 0 1 186 
0 0 0 0 0 0 5 163 167 170 171 172 
6 1 0 0 0 0 1 164 
3 2 0 0 0 0 2 169 165 
5 2 0 0 0 0 1 166 
3 2 0 0 0 0 1 168 
8 3 0 0 0 0 1 168 
3 2 0 0 0 0 1 173 
9 3 0 0 0 0 1 173 
1 3 0 0 0 0 1 173 
4 4 0 0 0 0 1 173 
8 3 0 0 0 0 1 173 
0 0 0 0 0 0 1 186 
0 0 0 0 0 0 2 175 178 
10 0 1 0 0 0 4 184 183 177 176 
1 0 2 0 0 0 2 182 179 
5 0 3 0 0 0 2 182 180 
6 0 3 0 0 0 1 179 
2 0 2 0 0 0 1 180 
1 0 4 0 0 0 1 181 
5 0 2 0 0 0 1 185 
2 0 4 0 0 0 1 185 
2 0 3 0 0 0 1 185 
9 0 1 0 0 0 1 185 
0 0 0 0 0 0 1 186 
0 0 0 0 0 0 0 
